5 5
5 2 2 11 4 11 2 3 8 1 20 3 5 10 3 18 1 3 1 2 6 1 5 7
5 2 2 17 4 3 1 4 14 1 2 20 3 4 4 2 19 1 11 1 4 8
5 4 2 17 3 16 1 4 5 13 2 2 11 5 15 5 1 14 2 17 5 11 4 14 3 6 2 4 6 1 20 5 3 18 5 7 1 6 4 11 2 17
6 1 5 18 2 4 11 5 16 5 4 20 1 20 5 6 2 13 3 14 5 4 10 5 9 1 15 2 2 3 2 4 5 9 4 6 1 14 2 13 3 1 17 5 7 3 19
6 1 3 17 1 5 20 4 2 3 1 5 5 11 4 15 2 3 20 4 7 1 1 8 4 2 18 4 16 3 14 1 20